certificates/rado_a14_c76_N57.cnf
c Rad2 upper bound instance: x1 + 14*x2 - x3 = 76, interval [1,57]
p cnf 57 464
1 6 9 0
-1 -6 -9 0
1 7 23 0
-1 -7 -23 0
1 8 37 0
-1 -8 -37 0
1 9 51 0
-1 -9 -51 0
2 6 10 0
-2 -6 -10 0
2 7 24 0
-2 -7 -24 0
2 8 38 0
-2 -8 -38 0
2 9 52 0
-2 -9 -52 0
3 6 11 0
-3 -6 -11 0
3 7 25 0
-3 -7 -25 0
3 8 39 0
-3 -8 -39 0
3 9 53 0
-3 -9 -53 0
4 6 12 0
-4 -6 -12 0
4 7 26 0
-4 -7 -26 0
4 8 40 0
-4 -8 -40 0
4 9 54 0
-4 -9 -54 0
5 6 13 0
-5 -6 -13 0
5 7 27 0
-5 -7 -27 0
5 8 41 0
-5 -8 -41 0
5 9 55 0
-5 -9 -55 0
6 14 0
-6 -14 0
6 7 28 0
-6 -7 -28 0
6 8 42 0
-6 -8 -42 0
6 9 56 0
-6 -9 -56 0
1 5 7 0
-1 -5 -7 0
6 7 15 0
-6 -7 -15 0
7 29 0
-7 -29 0
7 8 43 0
-7 -8 -43 0
7 9 57 0
-7 -9 -57 0
2 5 8 0
-2 -5 -8 0
6 8 16 0
-6 -8 -16 0
7 8 30 0
-7 -8 -30 0
8 44 0
-8 -44 0
3 5 9 0
-3 -5 -9 0
6 9 17 0
-6 -9 -17 0
7 9 31 0
-7 -9 -31 0
8 9 45 0
-8 -9 -45 0
4 5 10 0
-4 -5 -10 0
6 10 18 0
-6 -10 -18 0
7 10 32 0
-7 -10 -32 0
8 10 46 0
-8 -10 -46 0
5 11 0
-5 -11 0
6 11 19 0
-6 -11 -19 0
7 11 33 0
-7 -11 -33 0
8 11 47 0
-8 -11 -47 0
5 6 12 0
-5 -6 -12 0
6 12 20 0
-6 -12 -20 0
7 12 34 0
-7 -12 -34 0
8 12 48 0
-8 -12 -48 0
5 7 13 0
-5 -7 -13 0
6 13 21 0
-6 -13 -21 0
7 13 35 0
-7 -13 -35 0
8 13 49 0
-8 -13 -49 0
5 8 14 0
-5 -8 -14 0
6 14 22 0
-6 -14 -22 0
7 14 36 0
-7 -14 -36 0
8 14 50 0
-8 -14 -50 0
5 9 15 0
-5 -9 -15 0
6 15 23 0
-6 -15 -23 0
7 15 37 0
-7 -15 -37 0
8 15 51 0
-8 -15 -51 0
5 10 16 0
-5 -10 -16 0
6 16 24 0
-6 -16 -24 0
7 16 38 0
-7 -16 -38 0
8 16 52 0
-8 -16 -52 0
5 11 17 0
-5 -11 -17 0
6 17 25 0
-6 -17 -25 0
7 17 39 0
-7 -17 -39 0
8 17 53 0
-8 -17 -53 0
5 12 18 0
-5 -12 -18 0
6 18 26 0
-6 -18 -26 0
7 18 40 0
-7 -18 -40 0
8 18 54 0
-8 -18 -54 0
5 13 19 0
-5 -13 -19 0
6 19 27 0
-6 -19 -27 0
7 19 41 0
-7 -19 -41 0
8 19 55 0
-8 -19 -55 0
5 14 20 0
-5 -14 -20 0
6 20 28 0
-6 -20 -28 0
7 20 42 0
-7 -20 -42 0
8 20 56 0
-8 -20 -56 0
1 4 21 0
-1 -4 -21 0
5 15 21 0
-5 -15 -21 0
6 21 29 0
-6 -21 -29 0
7 21 43 0
-7 -21 -43 0
8 21 57 0
-8 -21 -57 0
2 4 22 0
-2 -4 -22 0
5 16 22 0
-5 -16 -22 0
6 22 30 0
-6 -22 -30 0
7 22 44 0
-7 -22 -44 0
3 4 23 0
-3 -4 -23 0
5 17 23 0
-5 -17 -23 0
6 23 31 0
-6 -23 -31 0
7 23 45 0
-7 -23 -45 0
4 24 0
-4 -24 0
5 18 24 0
-5 -18 -24 0
6 24 32 0
-6 -24 -32 0
7 24 46 0
-7 -24 -46 0
4 5 25 0
-4 -5 -25 0
5 19 25 0
-5 -19 -25 0
6 25 33 0
-6 -25 -33 0
7 25 47 0
-7 -25 -47 0
4 6 26 0
-4 -6 -26 0
5 20 26 0
-5 -20 -26 0
6 26 34 0
-6 -26 -34 0
7 26 48 0
-7 -26 -48 0
4 7 27 0
-4 -7 -27 0
5 21 27 0
-5 -21 -27 0
6 27 35 0
-6 -27 -35 0
7 27 49 0
-7 -27 -49 0
4 8 28 0
-4 -8 -28 0
5 22 28 0
-5 -22 -28 0
6 28 36 0
-6 -28 -36 0
7 28 50 0
-7 -28 -50 0
4 9 29 0
-4 -9 -29 0
5 23 29 0
-5 -23 -29 0
6 29 37 0
-6 -29 -37 0
7 29 51 0
-7 -29 -51 0
4 10 30 0
-4 -10 -30 0
5 24 30 0
-5 -24 -30 0
6 30 38 0
-6 -30 -38 0
7 30 52 0
-7 -30 -52 0
4 11 31 0
-4 -11 -31 0
5 25 31 0
-5 -25 -31 0
6 31 39 0
-6 -31 -39 0
7 31 53 0
-7 -31 -53 0
4 12 32 0
-4 -12 -32 0
5 26 32 0
-5 -26 -32 0
6 32 40 0
-6 -32 -40 0
7 32 54 0
-7 -32 -54 0
4 13 33 0
-4 -13 -33 0
5 27 33 0
-5 -27 -33 0
6 33 41 0
-6 -33 -41 0
7 33 55 0
-7 -33 -55 0
4 14 34 0
-4 -14 -34 0
5 28 34 0
-5 -28 -34 0
6 34 42 0
-6 -34 -42 0
7 34 56 0
-7 -34 -56 0
1 3 35 0
-1 -3 -35 0
4 15 35 0
-4 -15 -35 0
5 29 35 0
-5 -29 -35 0
6 35 43 0
-6 -35 -43 0
7 35 57 0
-7 -35 -57 0
2 3 36 0
-2 -3 -36 0
4 16 36 0
-4 -16 -36 0
5 30 36 0
-5 -30 -36 0
6 36 44 0
-6 -36 -44 0
3 37 0
-3 -37 0
4 17 37 0
-4 -17 -37 0
5 31 37 0
-5 -31 -37 0
6 37 45 0
-6 -37 -45 0
3 4 38 0
-3 -4 -38 0
4 18 38 0
-4 -18 -38 0
5 32 38 0
-5 -32 -38 0
6 38 46 0
-6 -38 -46 0
3 5 39 0
-3 -5 -39 0
4 19 39 0
-4 -19 -39 0
5 33 39 0
-5 -33 -39 0
6 39 47 0
-6 -39 -47 0
3 6 40 0
-3 -6 -40 0
4 20 40 0
-4 -20 -40 0
5 34 40 0
-5 -34 -40 0
6 40 48 0
-6 -40 -48 0
3 7 41 0
-3 -7 -41 0
4 21 41 0
-4 -21 -41 0
5 35 41 0
-5 -35 -41 0
6 41 49 0
-6 -41 -49 0
3 8 42 0
-3 -8 -42 0
4 22 42 0
-4 -22 -42 0
5 36 42 0
-5 -36 -42 0
6 42 50 0
-6 -42 -50 0
3 9 43 0
-3 -9 -43 0
4 23 43 0
-4 -23 -43 0
5 37 43 0
-5 -37 -43 0
6 43 51 0
-6 -43 -51 0
3 10 44 0
-3 -10 -44 0
4 24 44 0
-4 -24 -44 0
5 38 44 0
-5 -38 -44 0
6 44 52 0
-6 -44 -52 0
3 11 45 0
-3 -11 -45 0
4 25 45 0
-4 -25 -45 0
5 39 45 0
-5 -39 -45 0
6 45 53 0
-6 -45 -53 0
3 12 46 0
-3 -12 -46 0
4 26 46 0
-4 -26 -46 0
5 40 46 0
-5 -40 -46 0
6 46 54 0
-6 -46 -54 0
3 13 47 0
-3 -13 -47 0
4 27 47 0
-4 -27 -47 0
5 41 47 0
-5 -41 -47 0
6 47 55 0
-6 -47 -55 0
3 14 48 0
-3 -14 -48 0
4 28 48 0
-4 -28 -48 0
5 42 48 0
-5 -42 -48 0
6 48 56 0
-6 -48 -56 0
1 2 49 0
-1 -2 -49 0
3 15 49 0
-3 -15 -49 0
4 29 49 0
-4 -29 -49 0
5 43 49 0
-5 -43 -49 0
6 49 57 0
-6 -49 -57 0
2 50 0
-2 -50 0
3 16 50 0
-3 -16 -50 0
4 30 50 0
-4 -30 -50 0
5 44 50 0
-5 -44 -50 0
2 3 51 0
-2 -3 -51 0
3 17 51 0
-3 -17 -51 0
4 31 51 0
-4 -31 -51 0
5 45 51 0
-5 -45 -51 0
2 4 52 0
-2 -4 -52 0
3 18 52 0
-3 -18 -52 0
4 32 52 0
-4 -32 -52 0
5 46 52 0
-5 -46 -52 0
2 5 53 0
-2 -5 -53 0
3 19 53 0
-3 -19 -53 0
4 33 53 0
-4 -33 -53 0
5 47 53 0
-5 -47 -53 0
2 6 54 0
-2 -6 -54 0
3 20 54 0
-3 -20 -54 0
4 34 54 0
-4 -34 -54 0
5 48 54 0
-5 -48 -54 0
2 7 55 0
-2 -7 -55 0
3 21 55 0
-3 -21 -55 0
4 35 55 0
-4 -35 -55 0
5 49 55 0
-5 -49 -55 0
2 8 56 0
-2 -8 -56 0
3 22 56 0
-3 -22 -56 0
4 36 56 0
-4 -36 -56 0
5 50 56 0
-5 -50 -56 0
2 9 57 0
-2 -9 -57 0
3 23 57 0
-3 -23 -57 0
4 37 57 0
-4 -37 -57 0
5 51 57 0
-5 -51 -57 0
