certificates/rado_a14_c76_N57.drat
-50 5 -56 0
-51 -56 -57 0
-2 -53 -56 -57 0
-50 -56 0
d -5 -50 -56 0
d -50 5 -56 0
-56 -57 0
d -51 -56 -57 0
50 -57 0
-57 0
-5 45 -9 0
-50 56 0
56 0
-50 0
2 0
-8 0
44 0
14 0
21 0
-6 0
42 0
16 0
49 0
-1 0
37 0
9 0
-3 0
-52 0
35 0
23 0
18 0
11 0
39 0
40 0
-5 0
-7 0
51 0
41 0
13 0
12 0
0
